NAME : local_9
TYPE : ATSP
DIMENSION : 10
EDGE_WEIGHT_TYPE : EXPLICIT
EDGE_WEIGHT_FORMAT : FULL_MATRIX
EDGE_WEIGHT_SECTION
0 792 527 790 693 10000000 547 10000000 725 10000000 
0 0 488 10000000 683 392 10000000 10000000 274 853 
0 488 0 10000000 258 763 776 10000000 472 552 
0 10000000 10000000 0 10000000 10000000 406 999 10000000 10000000 
0 683 258 10000000 0 861 753 1058 670 328 
0 392 763 10000000 861 0 10000000 10000000 505 893 
0 10000000 776 406 753 10000000 0 10000000 10000000 10000000 
0 10000000 10000000 999 1075 10000000 10000000 0 929 10000000 
0 274 472 10000000 660 505 10000000 1195 0 879 
0 10000000 10000000 10000000 10000000 10000000 10000000 10000000 10000000 0 
EOF